&BANDS
 outdir         = './work/',
 prefix         = 'Si',
 filband        = 'Si.bands',
 lsym           = .TRUE.
/
